problems/csplib-prob056/sonet-models/noch/O2/lingeling/model_4_1-s3ring09-solution000001.solution
language Essence 1.3

letting network be
        mset({}, {1, 2, 3, 6, 8}, {1, 3, 4, 12, 13}, {1, 3, 4, 12, 13}, {1, 3, 9, 10, 11}, {2, 5, 6, 7, 12},
             {8, 11, 13})
$ Here is a simple "visualisation" for the value above.
$ 
$  1  2  3  6  8
$  1  3  4 12 13
$  1  3  4 12 13
$  1  3  9 10 11
$  2  5  6  7 12
$  8 11 13

